NAME : mtsp100.6358486_49166280.tour
COMMENT : Cost = 6358486_49166280
COMMENT : Found by LKH-3 [Keld Helsgaun] Tue Mar 15 23:34:22 2022
TYPE : TOUR
DIMENSION : 109
TOUR_SECTION
1
27
101
96
82
47
28
12
86
69
104
91
77
3
55
87
26
10
9
6
83
40
59
64
54
84
108
32
97
98
49
70
22
58
29
36
67
75
7
74
23
42
89
11
90
17
94
107
15
63
85
25
20
56
21
18
16
102
34
38
66
8
61
72
57
31
99
45
33
68
14
65
78
80
76
46
52
81
103
13
79
35
30
100
2
48
92
5
43
39
41
24
105
88
93
60
62
37
51
19
53
44
4
71
73
106
95
109
50
-1
EOF
